; QueryHash 726048763895242390
(set-logic QF_AUFBV )
(declare-fun arg00 () (Array (_ BitVec 32) (_ BitVec 8) ) )
(assert (=  (_ bv118 8) (select  arg00 (_ bv2 32) ) ) )
(check-sat)
(exit)

; Assignments 896 ms
; { "arg00": [0, 0, 0, 0, 0, 0, 1, 0, 0, 0, 0] }
; { "arg00": [0, 0, 0, 0, 0, 1, 0, 0, 0, 0, 0] }
; { "arg00": [0, 0, 0, 0, 0, 101, 0, 0, 0, 0, 0] }
; { "arg00": [0, 0, 0, 0, 0, 110, 0, 0, 0, 0, 0] }
; { "arg00": [0, 0, 0, 0, 0, 112, 0, 0, 0, 0, 0] }
; { "arg00": [0, 0, 0, 0, 0, 69, 0, 0, 0, 0, 0] }
; { "arg00": [0, 0, 0, 0, 1, 0, 0, 0, 0, 0, 0] }
; { "arg00": [0, 0, 0, 0, 101, 0, 0, 0, 0, 0, 0] }
; { "arg00": [0, 0, 0, 0, 108, 0, 0, 0, 0, 0, 0] }
; { "arg00": [0, 0, 0, 0, 110, 0, 0, 0, 0, 0, 0] }
; { "arg00": [0, 0, 0, 0, 114, 0, 0, 0, 0, 0, 0] }
; { "arg00": [0, 0, 0, 0, 69, 0, 0, 0, 0, 0, 0] }
; { "arg00": [0, 0, 0, 1, 0, 0, 0, 0, 0, 0, 0] }
; { "arg00": [0, 0, 0, 101, 0, 0, 0, 0, 0, 0, 0] }
; { "arg00": [0, 0, 0, 110, 0, 0, 0, 0, 0, 0, 0] }
; { "arg00": [0, 0, 0, 69, 0, 0, 0, 0, 0, 0, 0] }
; { "arg00": [0, 0, 1, 0, 0, 0, 0, 0, 0, 0, 0] }
; { "arg00": [0, 0, 101, 0, 0, 0, 0, 0, 0, 0, 0] }
; { "arg00": [0, 0, 104, 0, 0, 0, 0, 0, 0, 0, 0] }
; { "arg00": [0, 0, 110, 0, 0, 0, 0, 0, 0, 0, 0] }
; { "arg00": [0, 0, 118, 0, 0, 0, 0, 0, 0, 0, 0] }
; { "arg00": [0, 0, 69, 0, 0, 0, 0, 0, 0, 0, 0] }
; { "model_version": [1, 0, 0, 0] }
